instances/italian.gr
c largest connected component from ITALIAN_GANGS.csv (65/67 vertices)
p tw 65 113
3 1
8 5
10 3
11 3
17 3
17 4
17 10
17 11
17 12
17 15
18 3
18 5
18 8
18 10
18 11
18 15
18 17
21 18
22 3
22 8
22 18
23 3
23 10
23 17
24 1
24 3
25 3
28 17
28 18
29 18
30 13
30 20
31 9
31 14
31 16
33 8
34 26
35 10
37 18
38 2
38 12
38 17
39 18
40 17
40 18
41 18
41 39
42 40
43 10
43 17
43 23
44 38
45 6
45 7
45 9
45 14
45 18
45 20
45 30
45 31
47 17
48 17
48 18
50 13
50 30
50 34
50 49
51 18
52 10
52 17
54 3
56 7
56 14
56 20
56 45
57 3
57 11
57 17
58 18
59 10
60 19
60 27
60 30
60 55
61 6
61 7
61 18
61 19
61 20
61 26
61 27
61 29
61 30
61 31
61 34
61 40
61 45
61 46
61 50
61 53
61 55
61 56
61 60
62 10
62 12
62 17
62 32
62 36
62 38
63 18
63 42
64 9
65 17