instances/italian.td
c Decomposition from Toto database
c graph6 ~?@@O???O?G@????????????KFGhWg????????CGO@@?_OS???G??????????????W???@???A@??@A_???????@????????O??_???????????@???O@A??????_?????W?????@???G??????O?_OO????????A?E`D?E????????????O??????@_??????????????_?@C??_??_??????_O??????????????_?????????????????CAA???@??_GG????????@????????_??????????OC_???O@_@oZcCKQp?DA??PO??????_???_???@???????????A????????
s td 58 4 65
b 1 40 42 63
b 2 18 40 63
b 3 18 40 61
b 4 18 45 61
b 5 31 45 56 61
b 6 14 31 45 56
b 7 17 18 40
b 8 17 65
b 9 9 31 45
b 10 9 64
b 11 10 17 62
b 12 20 45 56 61
b 13 20 30 45 61
b 14 30 60 61
b 15 10 59
b 16 18 58
b 17 3 10 17 18
b 18 3 11 17 18
b 19 3 11 17 57
b 20 55 60 61
b 21 3 54
b 22 53 61
b 23 10 17 52
b 24 18 51
b 25 30 50 61
b 26 49 50
b 27 17 18 48
b 28 17 47
b 29 46 61
b 30 38 44
b 31 3 10 17 23
b 32 10 17 23 43
b 33 18 39 41
b 34 18 37
b 35 36 62
b 36 10 35
b 37 34 50 61
b 38 3 18 22
b 39 8 18 22
b 40 8 33
b 41 32 62
b 42 18 29 61
b 43 17 18 28
b 44 27 60 61
b 45 26 34 61
b 46 3 25
b 47 18 21
b 48 19 60 61
b 49 16 31
b 50 15 17 18
b 51 13 30 50
b 52 12 17 38 62
b 53 7 45 56 61
b 54 6 45 61
b 55 5 8 18
b 56 4 17
b 57 2 38
b 58 1 3 24
1 2
2 3
2 7
2 16
2 24
2 34
2 47
2 33
3 4
3 22
3 29
3 42
4 54
4 5
5 6
5 9
5 49
5 12
5 53
7 8
7 27
7 28
7 43
7 50
7 56
7 17
9 10
11 35
11 41
11 17
11 52
12 13
13 14
13 25
14 20
14 44
14 48
15 17
17 18
17 21
17 31
17 38
17 46
17 23
17 36
17 58
18 19
25 26
25 37
25 51
30 52
31 32
37 45
38 39
39 40
39 55
52 57
